linear programming/gurobi/sddp/iter1_sub_1^2.lp
\ LP format - for model browsing. Use MPS format to capture full model detail.
Minimize
  q_2^2 + 2 I_1^2 + 15 B_1^2 + theta_3^2 - 225 Constant
Subject To
 R0: I_1^2 - B_1^2 = -15
Bounds
 theta_3^2 >= -100
 Constant = 1
End
