linear programming/gurobi/sddp/iter1_sub_1^2.sol
# Objective value = -100
q_2^2 0
I_1^2 0
B_1^2 15
theta_3^2 -100
